BEGIN IONS
PEPMASS=734.56943161415
CHARGE=0.0
MSLEVEL=2
COLLISION_ENERGY=N/A
SOURCE_INSTRUMENT=N/A
FILENAME=N/A
IONMODE=N/A
ORGANISM=N/A
NAME=N/A
PI=N/A
DATACOLLECTOR=N/A
SMILES=CCCCCCCCCCCCCCCC(=O)OC[C@H](COP([O-])(=O)OCC[N+](C)(C)C)OC(=O)CCCCCCCCCCCCCCC
INCHI=InChI=1S/C40H80NO8P/c1-6-8-10-12-14-16-18-20-22-24-26-28-30-32-39(42)46-36-38(37-48-50(44,45)47-35-34-41(3,4)5)49-40(43)33-31-29-27-25-23-21-19-17-15-13-11-9-7-2/h38H,6-37H2,1-5H3/t38-/m1/s1
INCHIAUX=N/A
TITLE=MCF_ID_04670510100941373627_MSlevel_2_lipidclass_PC_precursor_[M+H]+_precursor_mass_734.56943161415
86.1	20.0
125.0	20.0
184.07	100.0
734.56943161415	90.0
END IONS

BEGIN IONS
PEPMASS=756.55137586298
CHARGE=0.0
MSLEVEL=2
COLLISION_ENERGY=N/A
SOURCE_INSTRUMENT=N/A
FILENAME=N/A
IONMODE=N/A
ORGANISM=N/A
NAME=N/A
PI=N/A
DATACOLLECTOR=N/A
SMILES=CCCCCCCCCCCCCCCC(=O)OC[C@H](COP([O-])(=O)OCC[N+](C)(C)C)OC(=O)CCCCCCCCCCCCCCC
INCHI=InChI=1S/C40H80NO8P/c1-6-8-10-12-14-16-18-20-22-24-26-28-30-32-39(42)46-36-38(37-48-50(44,45)47-35-34-41(3,4)5)49-40(43)33-31-29-27-25-23-21-19-17-15-13-11-9-7-2/h38H,6-37H2,1-5H3/t38-/m1/s1
INCHIAUX=N/A
TITLE=MCF_ID_04670510100941373627_MSlevel_2_lipidclass_PC_precursor_[M+Na]+_precursor_mass_756.55137586298
86.1	10.0
146.98	30.0
698.48570160642	10.0
574.49315633783	20.0
550.49556202486	10.0
756.55137586298	100.0
END IONS

BEGIN IONS
PEPMASS=792.57600805741
CHARGE=0.0
MSLEVEL=2
COLLISION_ENERGY=N/A
SOURCE_INSTRUMENT=N/A
FILENAME=N/A
IONMODE=N/A
ORGANISM=N/A
NAME=N/A
PI=N/A
DATACOLLECTOR=N/A
SMILES=CCCCCCCCCCCCCCCC(=O)OC[C@H](COP([O-])(=O)OCC[N+](C)(C)C)OC(=O)CCCCCCCCCCCCCCC
INCHI=InChI=1S/C40H80NO8P/c1-6-8-10-12-14-16-18-20-22-24-26-28-30-32-39(42)46-36-38(37-48-50(44,45)47-35-34-41(3,4)5)49-40(43)33-31-29-27-25-23-21-19-17-15-13-11-9-7-2/h38H,6-37H2,1-5H3/t38-/m1/s1
INCHIAUX=N/A
TITLE=MCF_ID_04670510100941373627_MSlevel_2_lipidclass_PC_precursor_[M+CH3COO]-_precursor_mass_792.57600805741
717.5314035938001	100.0
END IONS